DIMACS2
160 503 581 472 593 64 256 205 14 388 51 164 338 442 7 515 65 78 555 116 1 90 62 537 27 23 568 264 508 137 501 313 351 554 136 448 497 126 70 586 394 347 28 588 514 539 579 450 400 76 403 121 5 285 185 85 434 355 138 483 219 327 594 487 529 494 155 518 359 225 127 265 511 88 325 430 416 535 77 20 626 526 541 324 577 301 532 431 374 279 9 214 414 323 245 18 46 157 585 480 307 4 621 67 16 369 86 584 221 273 260 387 452 150 328 160 597 170 224 223 474 571 543 498 129 167 184 424 438 41 52 91 390 509 540 26 622 566 417 48 200 462 302 202 319 478 57 633 333 163 72 25 630 292 158 463 348 259 98 447 135
p edge 640 2550
e 0 353 1.0
e 0 389 1.0
e 0 166 1.0
e 0 632 1.0
e 1 541 34.0
e 1 7 28.0
e 1 166 9.0
e 1 54 41.0
e 2 108 1.0
e 2 413 1.0
e 2 369 23.0
e 2 140 1.0
e 3 111 1.0
e 3 330 1.0
e 3 416 23.0
e 3 86 5.0
e 4 328 28.0
e 4 390 12.0
e 4 603 1.0
e 4 168 46.0
e 5 436 35.0
e 5 251 37.0
e 5 223 19.0
e 5 392 49.0
e 6 538 1.0
e 6 336 1.0
e 6 562 1.0
e 6 298 1.0
e 7 460 22.0
e 7 155 16.0
e 7 81 26.0
e 7 28 41.0
e 8 187 1.0
e 8 528 1.0
e 8 111 1.0
e 8 569 1.0
e 9 399 12.0
e 9 565 24.0
e 9 177 34.0
e 9 329 39.0
e 10 44 1.0
e 10 378 1.0
e 10 117 1.0
e 10 519 1.0
e 11 21 1.0
e 11 3 1.0
e 11 589 1.0
e 11 58 1.0
e 12 143 1.0
e 12 340 3.0
e 12 275 1.0
e 12 585 21.0
e 13 553 2.0
e 13 504 1.0
e 13 270 2.0
e 13 131 1.0
e 14 441 36.0
e 14 144 9.0
e 14 48 15.0
e 14 530 1.0
e 15 308 1.0
e 15 331 1.0
e 15 247 1.0
e 15 261 1.0
e 16 365 42.0
e 16 503 16.0
e 16 62 44.0
e 16 0 34.0
e 17 70 18.0
e 17 292 47.0
e 17 178 1.0
e 17 1 35.0
e 18 276 44.0
e 18 69 36.0
e 18 178 37.0
e 18 121 11.0
e 19 369 43.0
e 19 148 2.0
e 19 377 1.0
e 19 530 1.0
e 20 595 35.0
e 20 150 48.0
e 20 542 12.0
e 20 49 15.0
e 21 404 1.0
e 21 526 26.0
e 21 375 2.0
e 21 424 3.0
e 22 11 1.0
e 22 328 2.0
e 22 145 1.0
e 22 356 1.0
e 23 163 1.0
e 23 225 34.0
e 23 120 4.0
e 23 283 12.0
e 24 38 1.0
e 24 428 2.0
e 24 467 1.0
e 24 276 1.0
e 25 616 31.0
e 25 482 46.0
e 25 211 33.0
e 25 17 34.0
e 26 484 8.0
e 26 152 15.0
e 26 103 33.0
e 26 593 1.0
e 27 276 10.0
e 27 41 28.0
e 27 9 29.0
e 27 55 43.0
e 28 554 5.0
e 28 435 36.0
e 28 504 40.0
e 28 384 46.0
e 29 368 1.0
e 29 98 44.0
e 29 452 21.0
e 29 151 1.0
e 30 246 1.0
e 30 86 27.0
e 30 386 2.0
e 30 335 1.0
e 31 6 2.0
e 31 26 12.0
e 31 263 1.0
e 31 296 1.0
e 32 550 1.0
e 32 610 1.0
e 32 326 1.0
e 32 175 3.0
e 33 447 47.0
e 33 331 1.0
e 33 562 1.0
e 33 18 12.0
e 34 587 1.0
e 34 114 1.0
e 34 219 15.0
e 34 261 1.0
e 35 588 34.0
e 35 632 1.0
e 35 496 1.0
e 35 539 26.0
e 36 209 1.0
e 36 336 1.0
e 36 510 2.0
e 36 187 1.0
e 37 57 18.0
e 37 334 1.0
e 37 374 24.0
e 37 599 1.0
e 38 63 1.0
e 38 107 2.0
e 38 318 1.0
e 38 58 1.0
e 39 275 1.0
e 39 1 37.0
e 39 17 1.0
e 39 4 32.0
e 40 80 1.0
e 40 92 2.0
e 40 20 44.0
e 40 504 1.0
e 41 6 27.0
e 41 368 43.0
e 41 378 41.0
e 41 32 19.0
e 42 367 1.0
e 42 535 41.0
e 42 41 5.0
e 42 255 1.0
e 43 280 2.0
e 43 300 3.0
e 43 394 22.0
e 43 632 2.0
e 44 604 1.0
e 44 145 1.0
e 44 575 1.0
e 44 537 39.0
e 45 250 1.0
e 45 49 1.0
e 45 127 39.0
e 45 29 1.0
e 46 242 33.0
e 46 420 6.0
e 46 143 40.0
e 46 323 30.0
e 47 244 1.0
e 47 221 48.0
e 47 524 2.0
e 47 276 2.0
e 48 577 21.0
e 48 310 10.0
e 48 471 40.0
e 48 540 39.0
e 49 281 1.0
e 49 395 1.0
e 49 221 30.0
e 49 358 1.0
e 50 574 1.0
e 50 38 1.0
e 50 627 1.0
e 50 585 46.0
e 51 245 6.0
e 51 321 5.0
e 51 22 32.0
e 51 503 7.0
e 52 397 6.0
e 52 579 36.0
e 52 214 33.0
e 52 161 34.0
e 53 313 23.0
e 53 531 1.0
e 53 164 18.0
e 53 219 15.0
e 54 541 48.0
e 54 59 1.0
e 54 74 1.0
e 54 386 1.0
e 55 53 1.0
e 55 514 15.0
e 55 161 1.0
e 55 496 1.0
e 56 510 1.0
e 56 469 1.0
e 56 232 1.0
e 56 372 1.0
e 57 627 22.0
e 57 274 27.0
e 57 549 42.0
e 57 223 8.0
e 58 114 1.0
e 58 531 1.0
e 58 359 15.0
e 58 622 21.0
e 59 140 2.0
e 59 350 1.0
e 59 385 1.0
e 59 214 15.0
e 60 82 1.0
e 60 242 1.0
e 60 522 1.0
e 60 607 1.0
e 61 119 2.0
e 61 545 2.0
e 61 152 1.0
e 61 456 1.0
e 62 292 41.0
e 62 156 2.0
e 62 526 37.0
e 62 427 14.0
e 63 632 1.0
e 63 270 1.0
e 63 537 49.0
e 63 566 10.0
e 64 378 42.0
e 64 614 34.0
e 64 126 49.0
e 64 97 15.0
e 65 94 18.0
e 65 237 40.0
e 65 492 47.0
e 65 14 26.0
e 66 287 1.0
e 66 88 21.0
e 66 129 35.0
e 66 313 32.0
e 67 425 41.0
e 67 416 6.0
e 67 327 18.0
e 67 281 15.0
e 68 428 1.0
e 68 142 1.0
e 68 175 2.0
e 68 614 1.0
e 69 375 2.0
e 69 278 1.0
e 69 480 46.0
e 69 407 1.0
e 70 577 26.0
e 70 90 27.0
e 70 28 41.0
e 70 103 30.0
e 71 234 1.0
e 71 582 1.0
e 71 340 1.0
e 71 154 1.0
e 72 331 3.0
e 72 339 21.0
e 72 624 22.0
e 72 84 8.0
e 73 623 1.0
e 73 112 1.0
e 73 40 1.0
e 73 547 1.0
e 74 276 1.0
e 74 611 2.0
e 74 500 1.0
e 74 219 11.0
e 75 105 1.0
e 75 510 2.0
e 75 62 4.0
e 75 18 15.0
e 76 516 47.0
e 76 192 7.0
e 76 538 43.0
e 76 389 13.0
e 77 148 10.0
e 77 170 37.0
e 77 598 18.0
e 77 561 17.0
e 78 286 48.0
e 78 441 30.0
e 78 165 39.0
e 78 213 25.0
e 79 186 1.0
e 79 584 3.0
e 79 474 24.0
e 79 297 1.0
e 80 141 1.0
e 80 337 1.0
e 80 373 1.0
e 80 281 1.0
e 81 51 27.0
e 81 552 1.0
e 81 242 1.0
e 81 529 44.0
e 82 45 2.0
e 82 571 3.0
e 82 242 1.0
e 82 383 1.0
e 83 217 1.0
e 83 17 1.0
e 83 497 5.0
e 83 625 1.0
e 84 143 1.0
e 84 121 46.0
e 84 394 11.0
e 84 288 1.0
e 85 94 13.0
e 85 572 10.0
e 85 396 1.0
e 85 327 25.0
e 86 241 23.0
e 86 456 46.0
e 86 302 12.0
e 86 264 12.0
e 87 136 18.0
e 87 319 39.0
e 87 241 1.0
e 87 345 1.0
e 88 49 27.0
e 88 154 36.0
e 88 523 38.0
e 88 314 9.0
e 89 221 38.0
e 89 148 1.0
e 89 519 1.0
e 89 636 1.0
e 90 57 31.0
e 90 332 14.0
e 90 158 8.0
e 90 293 36.0
e 91 466 44.0
e 91 501 13.0
e 91 597 31.0
e 91 502 30.0
e 92 261 2.0
e 92 220 1.0
e 92 419 2.0
e 92 551 3.0
e 93 614 1.0
e 93 295 1.0
e 93 340 1.0
e 93 279 48.0
e 94 383 1.0
e 94 504 1.0
e 94 257 1.0
e 94 67 13.0
e 95 42 1.0
e 95 631 1.0
e 95 163 11.0
e 95 454 1.0
e 96 308 1.0
e 96 59 1.0
e 96 339 1.0
e 96 373 1.0
e 97 339 1.0
e 97 316 1.0
e 97 561 1.0
e 97 224 29.0
e 98 374 38.0
e 98 605 31.0
e 98 170 39.0
e 98 599 35.0
e 99 594 40.0
e 99 22 1.0
e 99 142 1.0
e 99 587 1.0
e 100 478 12.0
e 100 94 1.0
e 100 25 12.0
e 100 365 1.0
e 101 138 36.0
e 101 469 1.0
e 101 162 1.0
e 101 505 1.0
e 102 273 19.0
e 102 584 49.0
e 102 322 1.0
e 102 151 1.0
e 103 425 1.0
e 103 552 1.0
e 103 587 1.0
e 103 601 1.0
e 104 245 6.0
e 104 203 1.0
e 104 356 1.0
e 104 228 1.0
e 105 414 16.0
e 105 214 43.0
e 105 246 1.0
e 105 97 1.0
e 106 495 1.0
e 106 597 16.0
e 106 420 1.0
e 106 267 1.0
e 107 196 1.0
e 107 569 1.0
e 107 441 1.0
e 107 287 1.0
e 108 178 1.0
e 108 467 1.0
e 108 12 2.0
e 108 268 1.0
e 109 386 1.0
e 109 530 1.0
e 109 412 1.0
e 109 262 1.0
e 110 147 1.0
e 110 543 41.0
e 110 481 1.0
e 110 91 2.0
e 111 148 1.0
e 111 118 1.0
e 111 275 1.0
e 111 129 19.0
e 112 18 13.0
e 112 439 1.0
e 112 183 1.0
e 112 411 1.0
e 113 262 2.0
e 113 614 1.0
e 113 319 31.0
e 113 110 1.0
e 114 582 1.0
e 114 70 30.0
e 114 367 1.0
e 114 417 48.0
e 115 443 2.0
e 115 555 42.0
e 115 191 1.0
e 115 504 1.0
e 116 606 47.0
e 116 418 37.0
e 116 154 13.0
e 116 321 6.0
e 117 254 1.0
e 117 342 1.0
e 117 300 1.0
e 117 507 1.0
e 118 535 18.0
e 118 633 37.0
e 118 257 1.0
e 118 318 1.0
e 119 121 22.0
e 119 32 1.0
e 119 628 1.0
e 119 297 2.0
e 120 529 25.0
e 120 431 41.0
e 120 481 2.0
e 120 614 1.0
e 121 374 8.0
e 121 627 30.0
e 121 265 13.0
e 122 60 1.0
e 122 87 1.0
e 122 443 1.0
e 122 310 1.0
e 123 506 1.0
e 123 49 2.0
e 123 367 1.0
e 123 273 5.0
e 124 93 1.0
e 124 143 1.0
e 124 579 36.0
e 124 516 1.0
e 125 333 13.0
e 125 292 40.0
e 125 397 1.0
e 125 510 1.0
e 126 519 11.0
e 126 314 7.0
e 126 581 21.0
e 126 6 44.0
e 127 65 10.0
e 127 3 47.0
e 127 497 35.0
e 127 61 6.0
e 128 19 2.0
e 128 157 15.0
e 128 327 39.0
e 128 435 1.0
e 129 358 41.0
e 129 65 15.0
e 129 32 32.0
e 129 298 38.0
e 130 58 1.0
e 130 368 1.0
e 130 72 19.0
e 130 565 1.0
e 131 538 1.0
e 131 214 31.0
e 131 309 1.0
e 131 495 1.0
e 132 96 1.0
e 132 426 1.0
e 132 94 1.0
e 132 73 3.0
e 133 527 1.0
e 133 570 1.0
e 133 340 1.0
e 133 355 12.0
e 134 25 13.0
e 134 221 11.0
e 134 274 1.0
e 134 176 1.0
e 135 96 4.0
e 135 325 11.0
e 135 554 15.0
e 135 145 19.0
e 136 579 31.0
e 136 339 13.0
e 136 469 2.0
e 136 78 23.0
e 137 434 34.0
e 137 281 34.0
e 137 271 4.0
e 137 571 47.0
e 138 394 9.0
e 138 627 5.0
e 138 605 28.0
e 138 536 46.0
e 139 191 1.0
e 139 39 1.0
e 139 113 1.0
e 139 452 36.0
e 140 637 1.0
e 140 419 1.0
e 140 313 39.0
e 140 147 1.0
e 141 351 41.0
e 141 637 1.0
e 141 316 1.0
e 141 276 1.0
e 142 582 1.0
e 142 189 1.0
e 142 114 1.0
e 142 240 1.0
e 143 587 2.0
e 143 304 1.0
e 143 75 2.0
e 143 166 2.0
e 144 116 13.0
e 144 244 1.0
e 144 338 5.0
e 144 477 2.0
e 145 494 33.0
e 145 473 1.0
e 145 621 12.0
e 145 256 21.0
e 146 591 1.0
e 146 618 2.0
e 146 242 1.0
e 146 544 1.0
e 147 26 25.0
e 147 158 44.0
e 147 245 10.0
e 147 246 1.0
e 148 443 1.0
e 148 542 1.0
e 148 159 1.0
e 148 128 1.0
e 149 556 2.0
e 149 318 1.0
e 149 284 1.0
e 149 112 1.0
e 150 618 26.0
e 150 353 36.0
e 150 151 24.0
e 150 304 46.0
e 151 265 6.0
e 151 565 1.0
e 151 357 1.0
e 151 218 1.0
e 152 92 2.0
e 152 443 3.0
e 152 308 1.0
e 152 277 1.0
e 153 41 31.0
e 153 490 2.0
e 153 452 42.0
e 153 307 8.0
e 154 177 1.0
e 154 147 1.0
e 154 87 1.0
e 154 466 2.0
e 155 472 8.0
e 155 499 47.0
e 155 141 20.0
e 155 16 30.0
e 156 76 49.0
e 156 113 2.0
e 156 86 43.0
e 156 372 1.0
e 157 582 19.0
e 157 543 13.0
e 157 137 23.0
e 157 260 32.0
e 158 78 20.0
e 158 396 37.0
e 158 582 29.0
e 158 9 12.0
e 159 436 1.0
e 159 103 1.0
e 159 6 1.0
e 159 161 1.0
e 160 529 49.0
e 160 18 6.0
e 160 447 19.0
e 160 355 9.0
e 160 462 12.0
e 161 424 40.0
e 161 519 1.0
e 161 608 1.0
e 161 63 1.0
e 162 97 2.0
e 162 340 1.0
e 162 353 2.0
e 162 246 2.0
e 163 488 8.0
e 163 164 36.0
e 163 443 18.0
e 163 75 36.0
e 164 290 43.0
e 164 24 44.0
e 164 519 23.0
e 164 254 4.0
e 165 77 38.0
e 165 244 1.0
e 165 166 1.0
e 165 565 1.0
e 166 231 2.0
e 166 146 1.0
e 166 173 1.0
e 166 490 1.0
e 167 65 9.0
e 167 54 45.0
e 167 237 11.0
e 167 263 5.0
e 168 106 1.0
e 168 176 1.0
e 168 52 23.0
e 168 6 1.0
e 169 559 1.0
e 169 25 48.0
e 169 625 1.0
e 169 287 1.0
e 170 493 21.0
e 170 603 9.0
e 170 489 17.0
e 170 241 38.0
e 171 247 1.0
e 171 9 1.0
e 171 98 15.0
e 171 194 1.0
e 172 529 49.0
e 172 320 1.0
e 172 242 1.0
e 172 196 2.0
e 173 445 1.0
e 173 289 1.0
e 173 553 1.0
e 173 143 2.0
e 174 192 1.0
e 174 332 1.0
e 174 66 1.0
e 174 593 48.0
e 175 162 2.0
e 175 102 1.0
e 175 25 9.0
e 175 283 2.0
e 176 610 1.0
e 176 414 44.0
e 176 57 31.0
e 176 21 1.0
e 177 440 1.0
e 177 320 1.0
e 177 260 34.0
e 177 17 1.0
e 178 226 1.0
e 178 24 2.0
e 178 418 1.0
e 178 290 1.0
e 179 423 1.0
e 179 427 1.0
e 179 13 1.0
e 179 255 1.0
e 180 241 1.0
e 180 268 2.0
e 180 231 1.0
e 180 457 3.0
e 181 325 1.0
e 181 280 1.0
e 181 512 2.0
e 181 355 22.0
e 182 42 1.0
e 182 25 1.0
e 182 473 1.0
e 182 128 1.0
e 183 491 1.0
e 183 52 19.0
e 183 280 3.0
e 183 0 1.0
e 184 208 12.0
e 184 344 40.0
e 184 384 27.0
e 184 532 25.0
e 185 576 18.0
e 185 304 40.0
e 185 417 49.0
e 185 311 35.0
e 186 438 25.0
e 186 303 1.0
e 186 123 1.0
e 186 83 1.0
e 187 568 35.0
e 187 539 25.0
e 187 578 1.0
e 187 428 2.0
e 188 599 2.0
e 188 456 1.0
e 188 318 1.0
e 188 540 29.0
e 189 45 1.0
e 189 293 1.0
e 189 578 1.0
e 189 137 10.0
e 190 405 1.0
e 190 358 1.0
e 190 563 1.0
e 190 309 1.0
e 191 296 2.0
e 191 257 1.0
e 191 423 1.0
e 191 456 2.0
e 192 213 1.0
e 192 283 1.0
e 192 633 30.0
e 192 552 2.0
e 193 109 1.0
e 193 135 3.0
e 193 435 2.0
e 193 251 1.0
e 194 550 1.0
e 194 77 13.0
e 194 73 1.0
e 194 165 1.0
e 195 35 1.0
e 195 177 1.0
e 195 172 1.0
e 195 338 45.0
e 196 185 29.0
e 196 441 1.0
e 196 384 1.0
e 196 472 44.0
e 197 282 1.0
e 197 417 5.0
e 197 71 1.0
e 197 218 3.0
e 198 113 1.0
e 198 276 1.0
e 198 555 40.0
e 198 362 1.0
e 199 376 2.0
e 199 625 1.0
e 199 415 1.0
e 199 352 1.0
e 200 583 37.0
e 200 203 30.0
e 200 534 37.0
e 200 44 10.0
e 201 344 1.0
e 201 521 1.0
e 201 622 38.0
e 201 381 1.0
e 202 480 47.0
e 202 273 18.0
e 202 637 3.0
e 202 225 17.0
e 203 259 30.0
e 203 168 1.0
e 203 587 1.0
e 203 215 2.0
e 204 586 8.0
e 204 65 40.0
e 204 43 1.0
e 204 497 36.0
e 205 477 10.0
e 205 296 37.0
e 205 342 7.0
e 205 529 19.0
e 206 14 36.0
e 206 480 3.0
e 206 63 1.0
e 206 262 2.0
e 207 53 1.0
e 207 411 1.0
e 207 133 1.0
e 207 281 1.0
e 208 598 1.0
e 208 449 1.0
e 208 15 1.0
e 208 570 1.0
e 209 202 41.0
e 209 272 1.0
e 209 149 1.0
e 209 158 10.0
e 210 418 1.0
e 210 480 10.0
e 210 504 1.0
e 210 211 1.0
e 211 7 24.0
e 211 391 1.0
e 211 297 1.0
e 211 39 1.0
e 212 91 21.0
e 212 340 1.0
e 212 209 1.0
e 212 370 1.0
e 213 37 1.0
e 213 584 42.0
e 213 570 1.0
e 213 380 1.0
e 214 400 38.0
e 214 229 29.0
e 214 10 25.0
e 214 290 5.0
e 215 610 1.0
e 215 144 2.0
e 215 543 8.0
e 215 370 1.0
e 216 233 1.0
e 216 193 1.0
e 216 26 1.0
e 216 441 1.0
e 217 378 1.0
e 217 518 47.0
e 217 633 1.0
e 217 626 2.0
e 218 613 1.0
e 218 52 9.0
e 218 402 1.0
e 218 12 1.0
e 219 205 3.0
e 219 54 10.0
e 219 391 39.0
e 219 483 30.0
e 220 234 1.0
e 220 156 1.0
e 220 146 1.0
e 220 534 1.0
e 221 575 26.0
e 221 111 45.0
e 221 412 37.0
e 221 313 40.0
e 222 96 1.0
e 222 590 1.0
e 222 435 1.0
e 222 41 31.0
e 223 502 13.0
e 223 309 2.0
e 223 291 24.0
e 223 296 49.0
e 224 45 43.0
e 224 560 37.0
e 224 237 26.0
e 224 419 41.0
e 225 330 29.0
e 225 344 13.0
e 225 258 32.0
e 225 198 22.0
e 226 536 1.0
e 226 94 1.0
e 226 63 1.0
e 226 223 7.0
e 227 358 1.0
e 227 128 1.0
e 227 362 1.0
e 227 293 1.0
e 228 162 1.0
e 228 128 1.0
e 228 222 1.0
e 228 58 1.0
e 229 606 1.0
e 229 527 1.0
e 229 242 1.0
e 229 62 7.0
e 230 125 1.0
e 230 5 29.0
e 230 500 2.0
e 230 287 1.0
e 231 610 1.0
e 231 177 1.0
e 231 586 22.0
e 231 95 1.0
e 232 298 1.0
e 232 389 1.0
e 232 336 1.0
e 232 241 1.0
e 233 326 1.0
e 233 272 2.0
e 233 155 8.0
e 233 596 1.0
e 234 437 1.0
e 234 227 1.0
e 234 309 1.0
e 234 203 1.0
e 235 620 1.0
e 235 617 1.0
e 235 534 1.0
e 235 41 10.0
e 236 473 1.0
e 236 168 1.0
e 236 345 1.0
e 236 122 1.0
e 237 423 1.0
e 237 0 1.0
e 237 571 15.0
e 237 474 26.0
e 238 93 1.0
e 238 56 1.0
e 238 143 2.0
e 238 181 1.0
e 239 530 1.0
e 239 408 1.0
e 239 390 20.0
e 239 424 2.0
e 240 42 1.0
e 240 193 1.0
e 240 332 1.0
e 240 423 1.0
e 241 84 1.0
e 241 483 7.0
e 241 320 1.0
e 241 171 1.0
e 242 522 2.0
e 242 27 6.0
e 242 238 1.0
e 242 489 1.0
e 243 518 16.0
e 243 459 2.0
e 243 25 11.0
e 243 169 1.0
e 244 543 37.0
e 244 255 1.0
e 244 333 4.0
e 244 164 1.0
e 245 139 2.0
e 245 412 39.0
e 245 531 21.0
e 245 151 21.0
e 246 613 1.0
e 246 358 1.0
e 246 592 1.0
e 246 74 1.0
e 247 510 3.0
e 247 437 1.0
e 247 598 1.0
e 247 454 2.0
e 248 582 1.0
e 248 439 2.0
e 248 631 2.0
e 248 492 1.0
e 249 205 22.0
e 249 296 1.0
e 249 16 3.0
e 249 146 1.0
e 250 503 36.0
e 250 265 10.0
e 250 429 1.0
e 250 130 1.0
e 251 476 1.0
e 251 398 1.0
e 251 615 1.0
e 251 132 1.0
e 252 69 1.0
e 252 395 1.0
e 252 468 2.0
e 252 325 36.0
e 253 238 2.0
e 253 520 2.0
e 253 148 2.0
e 253 616 1.0
e 254 302 24.0
e 254 423 1.0
e 254 15 1.0
e 254 430 2.0
e 255 26 37.0
e 255 307 36.0
e 255 340 1.0
e 255 145 1.0
e 256 264 31.0
e 256 129 44.0
e 256 7 34.0
e 256 432 6.0
e 257 348 34.0
e 257 578 1.0
e 257 460 1.0
e 257 208 1.0
e 258 493 1.0
e 258 237 1.0
e 258 329 1.0
e 258 92 2.0
e 259 408 48.0
e 259 317 40.0
e 259 62 44.0
e 259 357 32.0
e 260 131 42.0
e 260 380 37.0
e 260 72 12.0
e 260 253 5.0
e 261 572 1.0
e 261 127 1.0
e 261 73 1.0
e 261 121 27.0
e 262 591 2.0
e 262 59 1.0
e 262 376 1.0
e 262 22 2.0
e 263 460 1.0
e 263 82 1.0
e 263 316 1.0
e 263 188 1.0
e 264 197 2.0
e 264 199 46.0
e 264 518 12.0
e 264 129 19.0
e 265 358 29.0
e 265 178 36.0
e 265 509 8.0
e 265 147 10.0
e 266 330 2.0
e 266 491 1.0
e 266 340 1.0
e 266 486 1.0
e 267 52 48.0
e 267 194 2.0
e 267 375 1.0
e 267 376 2.0
e 268 551 1.0
e 268 132 1.0
e 268 11 1.0
e 268 190 1.0
e 269 623 2.0
e 269 304 2.0
e 269 151 1.0
e 269 487 37.0
e 270 414 9.0
e 270 621 27.0
e 270 258 1.0
e 270 180 1.0
e 271 162 1.0
e 271 599 1.0
e 271 521 1.0
e 271 161 1.0
e 272 276 1.0
e 272 396 1.0
e 272 498 7.0
e 272 329 1.0
e 273 499 47.0
e 273 378 44.0
e 273 614 46.0
e 273 128 44.0
e 274 380 1.0
e 274 26 10.0
e 274 287 1.0
e 274 599 1.0
e 275 279 39.0
e 275 173 1.0
e 275 35 1.0
e 275 417 48.0
e 276 68 1.0
e 276 196 1.0
e 276 385 1.0
e 276 232 1.0
e 277 493 2.0
e 277 60 1.0
e 277 591 2.0
e 277 519 1.0
e 278 571 14.0
e 278 223 28.0
e 278 26 9.0
e 278 291 1.0
e 279 259 31.0
e 279 402 36.0
e 279 303 28.0
e 279 524 21.0
e 280 10 1.0
e 280 628 1.0
e 280 267 1.0
e 280 96 3.0
e 281 581 1.0
e 281 573 1.0
e 281 437 1.0
e 281 42 1.0
e 282 97 1.0
e 282 270 3.0
e 282 24 1.0
e 282 635 1.0
e 283 249 1.0
e 283 442 29.0
e 283 580 1.0
e 283 525 1.0
e 284 603 2.0
e 284 525 1.0
e 284 467 2.0
e 284 496 2.0
e 285 305 23.0
e 285 432 33.0
e 285 177 49.0
e 285 585 31.0
e 286 186 2.0
e 286 38 1.0
e 286 100 1.0
e 286 396 1.0
e 287 9 41.0
e 287 246 3.0
e 287 379 1.0
e 287 204 2.0
e 288 358 1.0
e 288 200 12.0
e 288 633 22.0
e 288 539 34.0
e 289 7 7.0
e 289 587 1.0
e 289 75 1.0
e 289 85 35.0
e 290 480 48.0
e 290 569 1.0
e 290 54 1.0
e 290 188 1.0
e 291 410 2.0
e 291 408 3.0
e 291 101 1.0
e 291 262 2.0
e 292 363 8.0
e 292 579 22.0
e 292 44 13.0
e 292 51 26.0
e 293 620 1.0
e 293 423 1.0
e 293 50 1.0
e 293 115 1.0
e 294 38 1.0
e 294 350 1.0
e 294 530 1.0
e 294 269 1.0
e 295 67 44.0
e 295 586 6.0
e 295 65 41.0
e 295 559 1.0
e 296 513 1.0
e 296 158 4.0
e 296 447 23.0
e 296 455 1.0
e 297 148 1.0
e 297 296 2.0
e 297 353 2.0
e 297 290 2.0
e 298 621 31.0
e 298 367 1.0
e 298 391 1.0
e 298 89 1.0
e 299 271 1.0
e 299 577 5.0
e 299 394 37.0
e 299 150 47.0
e 300 281 1.0
e 300 577 40.0
e 300 254 2.0
e 300 66 1.0
e 301 614 30.0
e 301 535 38.0
e 301 258 39.0
e 301 636 3.0
e 302 92 48.0
e 302 613 8.0
e 302 626 37.0
e 302 51 9.0
e 303 504 1.0
e 303 264 5.0
e 303 397 1.0
e 303 414 38.0
e 304 152 1.0
e 304 609 1.0
e 304 189 1.0
e 304 430 40.0
e 305 518 19.0
e 305 380 1.0
e 305 339 1.0
e 305 295 1.0
e 306 597 34.0
e 306 313 35.0
e 306 196 1.0
e 306 631 1.0
e 307 611 6.0
e 307 319 49.0
e 307 257 7.0
e 307 193 17.0
e 308 539 8.0
e 308 131 1.0
e 308 606 1.0
e 309 220 1.0
e 309 501 44.0
e 309 161 1.0
e 309 473 1.0
e 310 119 1.0
e 310 590 2.0
e 310 100 1.0
e 310 342 2.0
e 311 484 1.0
e 311 120 1.0
e 311 548 1.0
e 311 86 20.0
e 312 499 1.0
e 312 33 1.0
e 312 557 2.0
e 312 519 1.0
e 313 530 31.0
e 313 73 7.0
e 313 587 2.0
e 313 260 4.0
e 314 365 1.0
e 314 410 1.0
e 314 635 1.0
e 314 573 1.0
e 315 519 1.0
e 315 360 1.0
e 315 230 1.0
e 315 545 1.0
e 316 503 2.0
e 316 68 1.0
e 316 535 11.0
e 316 592 1.0
e 317 393 1.0
e 317 548 1.0
e 317 134 1.0
e 317 229 1.0
e 318 33 1.0
e 318 492 1.0
e 318 375 1.0
e 318 456 1.0
e 319 633 21.0
e 319 419 7.0
e 319 75 13.0
e 319 627 11.0
e 320 75 1.0
e 320 407 1.0
e 320 379 2.0
e 321 57 22.0
e 321 344 1.0
e 321 89 1.0
e 321 350 2.0
e 322 112 1.0
e 322 281 1.0
e 322 632 1.0
e 322 96 1.0
e 323 458 35.0
e 323 436 19.0
e 323 399 13.0
e 323 35 39.0
e 324 577 45.0
e 324 277 28.0
e 324 199 3.0
e 324 359 18.0
e 325 93 18.0
e 325 514 33.0
e 325 491 13.0
e 325 18 31.0
e 326 133 1.0
e 326 24 1.0
e 326 109 1.0
e 326 432 1.0
e 327 237 43.0
e 327 432 43.0
e 327 494 26.0
e 327 242 49.0
e 328 394 39.0
e 328 37 15.0
e 328 72 31.0
e 328 166 29.0
e 329 559 1.0
e 329 444 1.0
e 329 324 49.0
e 329 589 2.0
e 330 608 1.0
e 330 423 1.0
e 330 47 2.0
e 330 636 1.0
e 331 388 1.0
e 331 491 1.0
e 331 52 44.0
e 331 581 42.0
e 332 187 1.0
e 332 444 1.0
e 332 273 46.0
e 332 503 38.0
e 333 428 6.0
e 333 609 21.0
e 333 295 14.0
e 333 161 13.0
e 334 344 1.0
e 334 70 14.0
e 334 338 49.0
e 334 289 1.0
e 335 168 1.0
e 335 371 1.0
e 335 312 1.0
e 335 165 1.0
e 336 21 1.0
e 336 398 1.0
e 336 370 2.0
e 336 622 26.0
e 337 318 1.0
e 337 386 1.0
e 337 148 1.0
e 337 347 21.0
e 338 388 46.0
e 338 537 25.0
e 338 271 15.0
e 338 504 25.0
e 339 248 2.0
e 339 192 1.0
e 339 638 1.0
e 339 600 1.0
e 340 172 3.0
e 340 14 41.0
e 340 0 1.0
e 340 473 1.0
e 341 419 1.0
e 341 103 1.0
e 341 155 30.0
e 341 157 34.0
e 342 483 31.0
e 342 636 1.0
e 342 178 1.0
e 342 267 1.0
e 343 237 1.0
e 343 366 1.0
e 343 37 2.0
e 343 268 1.0
e 344 560 1.0
e 344 588 28.0
e 344 120 1.0
e 344 226 1.0
e 345 199 1.0
e 345 75 1.0
e 345 341 1.0
e 345 218 1.0
e 346 232 1.0
e 346 39 1.0
e 346 98 26.0
e 346 433 1.0
e 347 63 25.0
e 347 247 41.0
e 347 78 12.0
e 347 440 48.0
e 348 213 32.0
e 348 628 48.0
e 348 163 9.0
e 348 116 46.0
e 349 390 37.0
e 349 318 1.0
e 349 627 1.0
e 349 301 25.0
e 350 617 1.0
e 350 601 1.0
e 350 326 1.0
e 350 594 5.0
e 351 183 22.0
e 351 326 13.0
e 351 72 38.0
e 351 201 49.0
e 352 463 35.0
e 352 420 1.0
e 352 390 3.0
e 352 25 7.0
e 353 42 1.0
e 353 189 1.0
e 353 505 2.0
e 354 365 1.0
e 354 578 1.0
e 354 506 2.0
e 354 346 1.0
e 355 583 42.0
e 355 404 16.0
e 355 608 29.0
e 355 273 37.0
e 356 133 1.0
e 356 624 1.0
e 356 583 1.0
e 356 611 1.0
e 357 86 9.0
e 357 416 25.0
e 357 124 1.0
e 357 479 1.0
e 358 612 1.0
e 358 480 26.0
e 358 35 1.0
e 358 41 23.0
e 359 193 15.0
e 359 322 48.0
e 359 107 20.0
e 359 205 15.0
e 360 485 1.0
e 360 425 1.0
e 360 162 1.0
e 360 283 1.0
e 361 110 1.0
e 361 484 1.0
e 361 62 43.0
e 361 369 19.0
e 362 31 1.0
e 362 596 1.0
e 362 358 1.0
e 362 482 1.0
e 363 258 1.0
e 363 335 1.0
e 363 390 7.0
e 363 602 1.0
e 364 331 1.0
e 364 523 1.0
e 364 458 1.0
e 364 591 1.0
e 365 388 43.0
e 365 523 1.0
e 365 566 20.0
e 365 431 19.0
e 366 64 46.0
e 366 525 2.0
e 366 340 1.0
e 366 585 25.0
e 367 492 1.0
e 367 168 1.0
e 367 352 1.0
e 368 70 48.0
e 368 180 1.0
e 368 76 10.0
e 368 200 28.0
e 369 10 3.0
e 369 397 43.0
e 369 48 3.0
e 369 162 14.0
e 370 458 1.0
e 370 298 1.0
e 370 75 1.0
e 370 501 18.0
e 371 418 1.0
e 371 232 3.0
e 371 216 2.0
e 371 165 2.0
e 372 186 1.0
e 372 249 1.0
e 372 62 8.0
e 372 503 13.0
e 373 217 1.0
e 373 501 8.0
e 373 102 1.0
e 373 597 4.0
e 374 182 29.0
e 374 389 12.0
e 374 85 18.0
e 374 290 13.0
e 375 17 1.0
e 375 412 1.0
e 375 359 2.0
e 375 453 1.0
e 376 314 2.0
e 376 490 2.0
e 376 28 11.0
e 376 575 1.0
e 377 1 23.0
e 377 380 1.0
e 377 30 2.0
e 377 443 1.0
e 378 213 1.0
e 378 623 1.0
e 378 485 1.0
e 378 123 1.0
e 379 259 23.0
e 379 87 3.0
e 379 193 1.0
e 379 253 1.0
e 380 408 1.0
e 380 434 7.0
e 380 429 1.0
e 380 328 35.0
e 381 636 1.0
e 381 243 1.0
e 381 369 6.0
e 381 250 1.0
e 382 14 14.0
e 382 393 1.0
e 382 376 1.0
e 382 451 1.0
e 383 374 42.0
e 383 25 12.0
e 383 111 1.0
e 383 246 1.0
e 384 177 1.0
e 384 564 1.0
e 384 206 1.0
e 384 380 1.0
e 385 150 42.0
e 385 26 34.0
e 385 157 2.0
e 385 63 1.0
e 386 309 1.0
e 386 429 1.0
e 386 553 1.0
e 386 496 1.0
e 387 351 43.0
e 387 119 1.0
e 387 40 25.0
e 387 403 33.0
e 388 493 47.0
e 388 337 22.0
e 388 35 43.0
e 388 460 42.0
e 389 598 1.0
e 389 521 1.0
e 389 302 27.0
e 389 362 1.0
e 390 319 29.0
e 390 512 48.0
e 390 457 9.0
e 390 584 22.0
e 391 260 46.0
e 391 167 36.0
e 391 220 1.0
e 391 567 1.0
e 392 376 2.0
e 392 435 2.0
e 392 248 1.0
e 392 64 41.0
e 393 419 2.0
e 393 534 1.0
e 393 566 7.0
e 393 111 2.0
e 394 638 12.0
e 394 116 15.0
e 394 361 37.0
e 394 457 3.0
e 395 621 10.0
e 395 452 20.0
e 395 262 1.0
e 395 33 1.0
e 396 60 1.0
e 396 595 1.0
e 396 182 1.0
e 396 93 1.0
e 397 422 1.0
e 397 628 1.0
e 397 268 1.0
e 397 63 1.0
e 398 396 1.0
e 398 512 1.0
e 398 72 28.0
e 398 47 1.0
e 399 633 42.0
e 399 88 26.0
e 399 89 1.0
e 399 554 11.0
e 400 437 16.0
e 400 102 11.0
e 400 116 8.0
e 400 563 11.0
e 401 340 1.0
e 401 283 1.0
e 401 548 1.0
e 401 540 12.0
e 402 69 1.0
e 402 601 1.0
e 402 233 1.0
e 402 27 21.0
e 403 180 21.0
e 403 281 31.0
e 403 361 15.0
e 403 520 13.0
e 404 298 1.0
e 404 39 1.0
e 404 4 1.0
e 404 46 14.0
e 405 234 1.0
e 405 28 48.0
e 405 570 1.0
e 405 450 24.0
e 406 70 14.0
e 406 21 1.0
e 406 532 46.0
e 406 304 1.0
e 407 250 1.0
e 407 193 1.0
e 407 397 1.0
e 407 506 2.0
e 408 411 2.0
e 408 53 1.0
e 408 628 2.0
e 408 275 1.0
e 409 309 1.0
e 409 16 12.0
e 409 203 1.0
e 409 187 1.0
e 410 122 1.0
e 410 252 1.0
e 410 628 1.0
e 410 425 1.0
e 411 403 13.0
e 411 0 3.0
e 411 37 2.0
e 411 156 1.0
e 412 70 35.0
e 412 219 1.0
e 412 316 1.0
e 412 99 1.0
e 413 43 1.0
e 413 574 1.0
e 413 1 31.0
e 413 3 1.0
e 414 33 25.0
e 414 191 46.0
e 414 39 48.0
e 414 340 8.0
e 415 486 1.0
e 415 132 1.0
e 415 531 1.0
e 415 520 1.0
e 416 344 24.0
e 416 332 24.0
e 416 409 42.0
e 416 211 4.0
e 417 200 9.0
e 417 48 43.0
e 417 251 24.0
e 417 441 3.0
e 418 119 1.0
e 418 288 1.0
e 418 398 1.0
e 419 45 1.0
e 419 635 1.0
e 419 142 1.0
e 419 87 1.0
e 420 585 17.0
e 420 518 33.0
e 420 288 1.0
e 420 114 1.0
e 421 320 2.0
e 421 481 1.0
e 421 418 1.0
e 421 516 1.0
e 422 530 1.0
e 422 116 7.0
e 422 593 24.0
e 422 264 18.0
e 423 455 1.0
e 423 627 1.0
e 423 534 1.0
e 423 370 1.0
e 424 141 32.0
e 424 430 30.0
e 424 371 39.0
e 424 405 46.0
e 425 121 30.0
e 425 466 1.0
e 425 423 1.0
e 426 275 1.0
e 426 100 1.0
e 426 603 1.0
e 426 313 6.0
e 427 634 1.0
e 427 288 1.0
e 427 197 1.0
e 427 546 1.0
e 428 595 2.0
e 428 210 1.0
e 428 356 1.0
e 428 370 2.0
e 429 577 28.0
e 429 519 1.0
e 429 14 3.0
e 429 164 46.0
e 430 409 18.0
e 430 588 39.0
e 430 536 18.0
e 430 441 17.0
e 431 412 42.0
e 431 133 3.0
e 431 186 27.0
e 431 349 45.0
e 432 568 9.0
e 432 83 1.0
e 432 173 1.0
e 432 197 1.0
e 433 249 1.0
e 433 202 34.0
e 433 59 2.0
e 433 587 1.0
e 434 32 35.0
e 434 377 37.0
e 434 83 41.0
e 434 111 17.0
e 435 519 2.0
e 435 366 1.0
e 435 266 1.0
e 435 61 1.0
e 436 50 1.0
e 436 517 1.0
e 436 139 1.0
e 436 193 1.0
e 437 613 1.0
e 437 35 1.0
e 437 273 31.0
e 437 271 1.0
e 438 77 3.0
e 438 426 5.0
e 438 235 21.0
e 438 606 41.0
e 439 548 1.0
e 439 100 1.0
e 439 326 1.0
e 439 623 1.0
e 440 367 1.0
e 440 255 2.0
e 440 561 3.0
e 440 371 1.0
e 441 521 1.0
e 441 283 1.0
e 441 303 1.0
e 441 13 1.0
e 442 221 9.0
e 442 607 34.0
e 442 426 11.0
e 442 534 13.0
e 443 118 1.0
e 443 146 2.0
e 443 37 1.0
e 443 15 1.0
e 444 304 1.0
e 444 89 1.0
e 444 400 8.0
e 444 90 20.0
e 445 502 1.0
e 445 172 1.0
e 445 345 1.0
e 445 501 17.0
e 446 542 1.0
e 446 413 1.0
e 446 436 1.0
e 446 238 1.0
e 447 131 15.0
e 447 210 17.0
e 447 112 20.0
e 447 84 45.0
e 448 250 33.0
e 448 285 5.0
e 448 521 31.0
e 448 216 19.0
e 449 407 1.0
e 449 29 1.0
e 449 363 1.0
e 449 576 1.0
e 450 103 5.0
e 450 373 16.0
e 450 403 28.0
e 450 418 26.0
e 451 196 1.0
e 451 494 24.0
e 451 608 2.0
e 451 310 1.0
e 452 447 45.0
e 452 250 34.0
e 452 13 36.0
e 452 78 23.0
e 453 132 1.0
e 453 213 1.0
e 453 636 1.0
e 453 623 1.0
e 454 237 1.0
e 454 437 1.0
e 454 235 1.0
e 454 206 1.0
e 455 85 38.0
e 455 116 42.0
e 455 544 1.0
e 455 199 1.0
e 456 100 1.0
e 456 51 3.0
e 456 224 49.0
e 456 5 1.0
e 457 186 1.0
e 457 166 1.0
e 457 313 45.0
e 457 68 1.0
e 458 249 1.0
e 458 55 1.0
e 458 354 1.0
e 458 86 18.0
e 459 19 1.0
e 459 482 1.0
e 459 20 19.0
e 459 386 2.0
e 460 152 1.0
e 460 480 31.0
e 460 170 2.0
e 460 520 1.0
e 461 137 43.0
e 461 386 1.0
e 461 380 1.0
e 461 9 2.0
e 462 342 28.0
e 462 596 45.0
e 462 420 21.0
e 462 18 4.0
e 463 147 17.0
e 463 577 14.0
e 463 543 47.0
e 463 46 42.0
e 464 207 1.0
e 464 584 34.0
e 464 148 1.0
e 464 314 1.0
e 465 22 1.0
e 465 161 1.0
e 465 513 1.0
e 465 486 1.0
e 466 206 2.0
e 466 290 1.0
e 466 55 1.0
e 466 257 2.0
e 467 324 48.0
e 467 146 2.0
e 467 618 1.0
e 467 389 2.0
e 468 93 1.0
e 468 459 1.0
e 468 579 47.0
e 468 513 2.0
e 469 187 1.0
e 469 621 22.0
e 469 245 32.0
e 470 140 1.0
e 470 441 1.0
e 470 493 1.0
e 470 167 29.0
e 471 105 1.0
e 471 209 2.0
e 471 304 1.0
e 471 549 1.0
e 472 95 33.0
e 472 206 45.0
e 472 150 42.0
e 472 636 34.0
e 473 535 43.0
e 473 280 1.0
e 473 628 1.0
e 473 445 1.0
e 474 630 16.0
e 474 209 32.0
e 474 326 24.0
e 474 305 33.0
e 475 133 1.0
e 475 611 1.0
e 475 304 1.0
e 475 194 1.0
e 476 129 41.0
e 476 202 40.0
e 476 348 43.0
e 476 435 1.0
e 477 410 1.0
e 477 296 1.0
e 477 63 1.0
e 477 176 1.0
e 478 130 2.0
e 478 445 26.0
e 478 237 5.0
e 478 546 2.0
e 479 282 2.0
e 479 223 3.0
e 479 34 1.0
e 479 449 1.0
e 480 297 40.0
e 480 66 41.0
e 480 473 40.0
e 480 138 14.0
e 481 546 1.0
e 481 517 2.0
e 481 105 1.0
e 481 22 1.0
e 482 392 1.0
e 482 545 1.0
e 482 315 1.0
e 482 515 5.0
e 483 576 24.0
e 483 412 2.0
e 483 361 44.0
e 483 140 45.0
e 484 68 1.0
e 484 279 49.0
e 484 262 2.0
e 484 38 1.0
e 485 85 22.0
e 485 233 2.0
e 485 314 1.0
e 485 87 1.0
e 486 15 1.0
e 486 318 1.0
e 486 445 1.0
e 486 481 1.0
e 487 243 4.0
e 487 222 42.0
e 487 562 5.0
e 487 10 41.0
e 488 553 1.0
e 488 412 1.0
e 488 632 1.0
e 489 598 1.0
e 489 417 15.0
e 489 493 1.0
e 489 580 1.0
e 490 612 3.0
e 490 132 2.0
e 490 72 23.0
e 490 499 1.0
e 491 95 1.0
e 491 596 1.0
e 491 5 17.0
e 491 441 1.0
e 492 211 1.0
e 492 23 36.0
e 492 618 1.0
e 492 322 1.0
e 493 86 37.0
e 493 109 1.0
e 493 107 1.0
e 493 420 1.0
e 494 525 33.0
e 494 303 4.0
e 494 343 15.0
e 494 592 5.0
e 495 41 25.0
e 495 236 1.0
e 495 271 1.0
e 495 202 7.0
e 496 165 1.0
e 496 74 1.0
e 496 15 1.0
e 496 459 2.0
e 497 458 22.0
e 497 327 4.0
e 497 263 27.0
e 497 45 22.0
e 498 20 11.0
e 498 382 16.0
e 498 264 27.0
e 498 152 3.0
e 499 487 21.0
e 499 256 19.0
e 499 287 1.0
e 499 382 1.0
e 500 4 44.0
e 500 492 1.0
e 500 272 1.0
e 500 149 1.0
e 501 340 5.0
e 501 318 6.0
e 501 469 24.0
e 501 41 32.0
e 502 570 1.0
e 502 31 1.0
e 502 473 1.0
e 502 336 2.0
e 503 54 15.0
e 503 398 40.0
e 503 282 42.0
e 503 131 15.0
e 504 604 1.0
e 504 316 1.0
e 504 264 23.0
e 504 83 1.0
e 505 201 1.0
e 505 76 19.0
e 505 603 1.0
e 505 420 2.0
e 506 67 9.0
e 506 317 2.0
e 506 234 1.0
e 506 142 2.0
e 507 220 3.0
e 507 495 2.0
e 507 297 2.0
e 507 497 24.0
e 508 27 14.0
e 508 208 29.0
e 508 366 22.0
e 508 96 42.0
e 509 564 24.0
e 509 517 3.0
e 509 470 46.0
e 509 90 49.0
e 510 142 2.0
e 510 452 8.0
e 510 624 2.0
e 510 111 1.0
e 511 158 29.0
e 511 192 38.0
e 511 564 12.0
e 511 534 11.0
e 512 73 2.0
e 512 94 2.0
e 512 358 2.0
e 512 234 2.0
e 513 490 2.0
e 513 85 8.0
e 513 349 1.0
e 513 529 28.0
e 514 271 2.0
e 514 134 45.0
e 514 54 44.0
e 514 98 31.0
e 515 149 1.0
e 515 460 15.0
e 515 260 4.0
e 515 590 28.0
e 516 633 26.0
e 516 122 1.0
e 516 145 1.0
e 516 506 1.0
e 517 579 3.0
e 517 528 1.0
e 517 492 1.0
e 517 257 1.0
e 518 194 45.0
e 518 226 49.0
e 518 124 5.0
e 518 244 12.0
e 519 420 1.0
e 519 458 1.0
e 519 23 14.0
e 519 223 29.0
e 520 73 1.0
e 520 246 1.0
e 520 594 34.0
e 520 638 1.0
e 521 35 1.0
e 521 456 1.0
e 521 46 13.0
e 521 532 44.0
e 522 491 1.0
e 522 157 2.0
e 522 557 2.0
e 522 263 2.0
e 523 330 1.0
e 523 154 1.0
e 523 568 11.0
e 523 295 1.0
e 524 84 1.0
e 524 265 27.0
e 524 9 16.0
e 524 17 1.0
e 525 176 1.0
e 525 383 1.0
e 525 15 1.0
e 525 465 1.0
e 526 501 6.0
e 526 387 38.0
e 526 574 13.0
e 526 50 38.0
e 527 395 1.0
e 527 120 1.0
e 527 283 1.0
e 527 147 1.0
e 528 367 1.0
e 528 211 1.0
e 528 615 1.0
e 528 320 1.0
e 529 284 17.0
e 529 118 6.0
e 529 261 45.0
e 529 79 2.0
e 530 176 1.0
e 530 201 1.0
e 530 149 1.0
e 530 477 2.0
e 531 285 16.0
e 531 631 1.0
e 531 601 1.0
e 531 587 1.0
e 532 578 8.0
e 532 145 41.0
e 532 303 14.0
e 532 254 22.0
e 533 275 1.0
e 533 453 1.0
e 533 520 1.0
e 533 451 2.0
e 534 264 24.0
e 534 548 1.0
e 534 620 1.0
e 534 351 19.0
e 535 213 35.0
e 535 427 32.0
e 535 489 11.0
e 535 585 16.0
e 536 110 1.0
e 536 555 6.0
e 536 71 1.0
e 536 234 1.0
e 537 455 39.0
e 537 426 33.0
e 537 368 27.0
e 537 16 11.0
e 538 447 7.0
e 538 346 1.0
e 538 187 1.0
e 538 256 21.0
e 539 324 33.0
e 539 273 6.0
e 539 600 35.0
e 539 611 23.0
e 540 66 3.0
e 540 597 38.0
e 540 229 14.0
e 540 318 47.0
e 541 634 43.0
e 541 622 48.0
e 541 279 48.0
e 541 461 25.0
e 542 338 44.0
e 542 550 1.0
e 542 117 1.0
e 542 509 36.0
e 543 456 33.0
e 543 266 46.0
e 543 555 10.0
e 543 304 12.0
e 544 30 2.0
e 544 548 1.0
e 544 108 1.0
e 544 624 3.0
e 545 337 1.0
e 545 523 1.0
e 545 243 1.0
e 545 557 1.0
e 546 500 1.0
e 546 480 24.0
e 546 24 1.0
e 546 208 1.0
e 547 294 1.0
e 547 228 2.0
e 547 579 14.0
e 548 546 1.0
e 548 74 1.0
e 548 61 1.0
e 549 308 1.0
e 549 181 1.0
e 549 7 15.0
e 549 311 1.0
e 550 252 1.0
e 550 413 2.0
e 550 245 26.0
e 550 3 2.0
e 551 448 22.0
e 551 168 1.0
e 551 444 1.0
e 551 430 1.0
e 552 267 1.0
e 552 229 1.0
e 552 433 1.0
e 552 516 2.0
e 553 190 1.0
e 553 66 1.0
e 553 150 15.0
e 553 88 9.0
e 554 126 49.0
e 554 161 19.0
e 554 521 13.0
e 554 173 22.0
e 555 104 31.0
e 555 99 13.0
e 555 20 3.0
e 555 328 31.0
e 556 146 1.0
e 556 143 1.0
e 556 115 1.0
e 556 479 1.0
e 557 414 3.0
e 557 426 2.0
e 557 482 1.0
e 557 550 2.0
e 558 521 1.0
e 558 511 13.0
e 558 334 2.0
e 558 275 2.0
e 559 350 1.0
e 559 315 1.0
e 559 500 1.0
e 559 251 1.0
e 560 617 1.0
e 560 78 10.0
e 560 498 22.0
e 560 262 2.0
e 561 112 1.0
e 561 473 1.0
e 561 258 1.0
e 561 115 1.0
e 562 403 28.0
e 562 527 1.0
e 562 59 1.0
e 562 254 1.0
e 563 59 2.0
e 563 131 1.0
e 563 176 1.0
e 563 372 1.0
e 564 29 1.0
e 564 128 1.0
e 564 554 40.0
e 564 330 2.0
e 565 510 1.0
e 565 29 1.0
e 565 451 1.0
e 565 450 2.0
e 566 204 4.0
e 566 66 16.0
e 566 595 42.0
e 566 346 28.0
e 567 213 1.0
e 567 295 1.0
e 567 470 1.0
e 567 13 1.0
e 568 271 26.0
e 568 161 13.0
e 568 263 28.0
e 568 552 9.0
e 569 63 1.0
e 569 386 1.0
e 569 531 1.0
e 569 257 1.0
e 570 73 1.0
e 570 414 44.0
e 570 206 1.0
e 570 195 2.0
e 571 140 28.0
e 571 49 25.0
e 571 116 12.0
e 571 189 20.0
e 572 203 1.0
e 572 412 1.0
e 572 500 2.0
e 572 141 1.0
e 573 475 1.0
e 573 510 1.0
e 573 562 1.0
e 573 285 6.0
e 574 11 1.0
e 574 61 1.0
e 574 86 41.0
e 574 187 1.0
e 575 283 1.0
e 575 530 1.0
e 575 572 2.0
e 575 28 28.0
e 576 609 1.0
e 576 167 46.0
e 576 526 39.0
e 576 547 2.0
e 577 262 41.0
e 577 433 27.0
e 577 352 40.0
e 577 469 30.0
e 578 147 1.0
e 578 269 1.0
e 578 414 33.0
e 578 489 1.0
e 579 94 7.0
e 579 559 48.0
e 579 223 35.0
e 579 93 33.0
e 580 395 1.0
e 580 460 1.0
e 580 182 1.0
e 580 439 1.0
e 581 396 10.0
e 581 280 41.0
e 581 173 19.0
e 581 344 48.0
e 582 585 25.0
e 582 446 1.0
e 582 509 34.0
e 582 243 1.0
e 583 360 1.0
e 583 433 1.0
e 583 157 32.0
e 583 296 1.0
e 584 444 15.0
e 584 0 43.0
e 584 271 9.0
e 584 152 14.0
e 585 515 15.0
e 585 564 2.0
e 585 149 3.0
e 585 79 22.0
e 586 89 15.0
e 586 368 35.0
e 586 273 35.0
e 586 177 45.0
e 587 393 1.0
e 587 129 4.0
e 587 83 1.0
e 587 330 2.0
e 588 130 8.0
e 588 380 3.0
e 588 4 24.0
e 588 469 47.0
e 589 468 1.0
e 589 156 2.0
e 589 292 40.0
e 589 217 2.0
e 590 32 1.0
e 590 406 1.0
e 590 392 1.0
e 590 113 1.0
e 591 488 1.0
e 591 333 38.0
e 591 250 1.0
e 591 88 35.0
e 592 447 16.0
e 592 190 1.0
e 592 609 1.0
e 592 39 1.0
e 593 8 16.0
e 593 373 34.0
e 593 114 13.0
e 593 481 10.0
e 594 308 23.0
e 594 529 7.0
e 594 556 45.0
e 594 390 42.0
e 595 337 1.0
e 595 273 21.0
e 595 245 1.0
e 595 207 1.0
e 596 137 30.0
e 596 37 1.0
e 596 465 1.0
e 596 501 21.0
e 597 271 6.0
e 597 3 27.0
e 597 39 7.0
e 597 566 47.0
e 598 115 1.0
e 598 36 1.0
e 598 218 1.0
e 598 514 11.0
e 599 264 15.0
e 599 223 7.0
e 599 303 1.0
e 599 509 48.0
e 600 208 1.0
e 600 191 2.0
e 600 175 2.0
e 600 157 4.0
e 601 310 1.0
e 601 131 1.0
e 601 112 1.0
e 601 361 1.0
e 602 423 1.0
e 602 417 29.0
e 602 418 1.0
e 602 28 45.0
e 603 607 1.0
e 603 368 1.0
e 603 489 1.0
e 603 478 48.0
e 604 231 1.0
e 604 523 1.0
e 604 286 1.0
e 604 140 1.0
e 605 438 21.0
e 605 277 2.0
e 605 494 16.0
e 605 333 31.0
e 606 40 1.0
e 606 58 1.0
e 606 500 2.0
e 606 210 1.0
e 607 108 1.0
e 607 265 49.0
e 607 469 1.0
e 607 180 1.0
e 608 537 7.0
e 608 621 38.0
e 608 39 1.0
e 608 545 1.0
e 609 1 19.0
e 609 337 1.0
e 609 411 1.0
e 609 236 1.0
e 610 279 4.0
e 610 541 45.0
e 610 139 1.0
e 610 553 1.0
e 611 482 1.0
e 611 243 1.0
e 611 504 1.0
e 611 215 2.0
e 612 425 1.0
e 612 438 44.0
e 612 27 42.0
e 612 146 1.0
e 613 48 19.0
e 613 623 1.0
e 613 532 29.0
e 613 447 15.0
e 614 351 2.0
e 614 390 19.0
e 614 112 1.0
e 614 589 2.0
e 615 598 1.0
e 615 590 1.0
e 615 467 1.0
e 615 6 1.0
e 616 244 1.0
e 616 3 1.0
e 616 245 17.0
e 616 91 29.0
e 617 626 18.0
e 617 46 23.0
e 617 500 2.0
e 617 347 39.0
e 618 217 2.0
e 618 550 1.0
e 618 203 2.0
e 618 546 2.0
e 619 421 1.0
e 619 514 41.0
e 619 620 1.0
e 619 403 14.0
e 620 259 37.0
e 620 367 1.0
e 620 449 1.0
e 620 543 9.0
e 621 603 3.0
e 621 184 23.0
e 621 322 38.0
e 621 51 11.0
e 622 347 45.0
e 622 590 37.0
e 622 538 18.0
e 622 101 10.0
e 623 216 1.0
e 623 383 1.0
e 623 399 1.0
e 623 250 1.0
e 624 527 1.0
e 624 471 1.0
e 624 34 2.0
e 624 246 2.0
e 625 254 1.0
e 625 482 1.0
e 625 290 1.0
e 625 286 2.0
e 626 508 31.0
e 626 125 19.0
e 626 353 2.0
e 626 473 48.0
e 627 502 1.0
e 627 565 1.0
e 627 309 1.0
e 627 458 1.0
e 628 536 1.0
e 628 530 1.0
e 628 78 2.0
e 628 128 1.0
e 629 78 31.0
e 629 355 37.0
e 629 266 1.0
e 629 313 27.0
e 630 421 20.0
e 630 248 14.0
e 630 237 19.0
e 630 93 37.0
e 631 459 1.0
e 631 97 1.0
e 631 356 1.0
e 631 117 1.0
e 632 361 1.0
e 632 310 1.0
e 632 189 1.0
e 632 100 1.0
e 633 18 27.0
e 633 34 44.0
e 633 494 41.0
e 633 381 1.0
e 634 157 9.0
e 634 20 15.0
e 634 181 1.0
e 634 323 17.0
e 635 294 1.0
e 635 195 2.0
e 635 387 19.0
e 635 386 1.0
e 636 175 2.0
e 636 510 1.0
e 636 463 22.0
e 636 213 1.0
e 637 490 1.0
e 637 108 1.0
e 637 126 10.0
e 637 314 1.0
e 638 90 17.0
e 638 157 29.0
e 638 228 1.0
e 638 41 35.0
e 639 518 13.0
e 639 307 5.0
e 639 515 49.0
e 639 601 1.0
